CMPL model generation - running

CMPL version: 1.11.0
Authors: Thomas Schleiff, Mike Steglich
Distributed under the GPLv3 

create model instance ...
write model instance ...
CMPL model generation - finished

Solver - running


Welcome to IBM(R) ILOG(R) CPLEX(R) Interactive Optimizer 12.7.1.0
  with Simplex, Mixed Integer & Barrier Optimizers
5725-A06 5725-A29 5724-Y48 5724-Y49 5724-Y54 5724-Y55 5655-Y21
Copyright IBM Corp. 1988, 2017.  All Rights Reserved.

Type 'help' for a list of available commands.
Type 'help' followed by a command name for more
information on commands.

CPLEX> Specified objective sense: MINIMIZE
Selected objective  name:  line[1]
Selected RHS        name:  RHS
Selected bound      name:  BOUND
Problem '/tmp/cmpl.T24316.mps' read.
Read time = 0.07 sec. (8.18 ticks)
CPLEX> CPXPARAM_Read_APIEncoding                        "UTF-8"
Tried aggregator 3 times.
MIP Presolve eliminated 19162 rows and 30559 columns.
MIP Presolve modified 340 coefficients.
Aggregator did 674 substitutions.
Reduced MIP has 2519 rows, 3360 columns, and 9790 nonzeros.
Reduced MIP has 3192 binaries, 0 generals, 0 SOSs, and 0 indicators.
Presolve time = 0.06 sec. (40.60 ticks)
Found incumbent of value 1640.793259 after 0.12 sec. (88.17 ticks)
Probing fixed 12 vars, tightened 0 bounds.
Probing time = 0.01 sec. (4.41 ticks)
Tried aggregator 1 time.
MIP Presolve eliminated 0 rows and 12 columns.
MIP Presolve modified 60 coefficients.
Reduced MIP has 2519 rows, 3348 columns, and 9766 nonzeros.
Reduced MIP has 3348 binaries, 0 generals, 0 SOSs, and 0 indicators.
Presolve time = 0.01 sec. (8.29 ticks)
Probing time = 0.01 sec. (2.70 ticks)
Clique table members: 5954.
MIP emphasis: balance optimality and feasibility.
MIP search method: dynamic search.
Parallel mode: none, using 1 thread.
Root relaxation solution time = 0.01 sec. (5.38 ticks)

        Nodes                                         Cuts/
   Node  Left     Objective  IInf  Best Integer    Best Bound    ItCnt     Gap

*     0+    0                         1640.7933      -30.2020           101.84%
      0     0      273.1090     8     1640.7933      273.1090      205   83.36%
*     0+    0                          281.2362      273.1090             2.89%
*     0+    0                          273.3376      273.1090             0.08%
      0     0      273.3024     1      273.3376      Cuts: 11      209    0.01%
*     0+    0                          273.3197      273.3024             0.01%
      0     0        cutoff            273.3197      273.3024      209    0.01%
Elapsed time = 0.19 sec. (132.08 ticks, tree = 0.01 MB, solutions = 4)

Clique cuts applied:  2
Cover cuts applied:  6
Gomory fractional cuts applied:  3

Root node processing (before b&c):
  Real time             =    0.19 sec. (133.79 ticks)
Sequential b&c:
  Real time             =    0.00 sec. (0.00 ticks)
                          ------------
Total (root+branch&cut) =    0.19 sec. (133.79 ticks)

Solution pool: 4 solutions saved.

MIP - Integer optimal solution:  Objective =  2.7331972100e+02
Solution time =    0.19 sec.  Iterations = 209  Nodes = 0
Deterministic time = 133.89 ticks  (702.69 ticks/sec)

CPLEX> Incumbent solution written to file '/tmp/cmpl.T24316.gsol'.
CPLEX> 
CMPL: Time used for model generation: 1 seconds
CMPL: Time used for solving the model: 1 seconds


Solution written to ASCII file: results/output_generated_conf_0.6/2016-07-04-4/fair-nonlinear.sol

Solver - finished
